&CONTROL
 calculation='scf'
 disk_io='low'
 dt=41.3414
 etot_conv_thr=1e-05
 forc_conv_thr=0.001
 input_xml_schema_file='r2scand3tight_P21c_TSI_ACETAC_1_2249_2_scf_0.xml'
 iprint=100000
 max_seconds=10000000
 nstep=50
 outdir='./'
 prefix='r2scand3tight_P21c_TSI_ACETAC_1_2249_2_scf_0'
 pseudo_dir='./'
 restart_mode='from_scratch'
 title='r2scand3tight_P21c_TSI_ACETAC_1_2249_2_scf_0'
 tprnfor=.false.
 tstress=.false.
 verbosity='low'
 wf_collect=.false.
/
&SYSTEM
 degauss=0.01
 dftd3_threebody=.true.
 dftd3_version=4
 ecutrho=320.0
 ecutwfc=80.0
 force_symmorphic=.false.
 ibrav=0
 input_dft='R2SCAN'
 lspinorb=.false.
 nat=32
 nbnd=58
 no_t_rev=.false.
 noinv=.false.
 noncolin=.false.
 nosym=.true.
 nosym_evc=.false.
 nspin=1
 ntyp=3
 occupations='smearing'
 smearing='gaussian'
 starting_magnetization(1)=0.0
 starting_magnetization(2)=0.0
 starting_magnetization(3)=0.0
 tot_charge=0.0
 tot_magnetization=-10000.0
 use_all_frac=.false.
 vdw_corr='DFT-D3'
/
&ELECTRONS
 conv_thr=1e-06
 diago_cg_maxiter=20
 diago_full_acc=.false.
 diago_thr_init=0.0
 diagonalization='davidson'
 electron_maxstep=200
 mixing_beta=0.2
 mixing_mode='plain'
 mixing_ndim=8
 tbeta_smoothing=.false.
 tq_smoothing=.false.
 tqr=.false.
/
&IONS
 delta_t=1.0
 ion_dynamics='bfgs'
 ion_temperature='rescale-v'
 nraise=1
 pot_extrapolation='atomic'
 refold_pos=.false.
 tempw=300.0
 tolp=100.0
 wfc_extrapolation='none'
/
&CELL
 cell_dynamics='bfgs'
 cell_factor=2.0
 press=0.0
 press_conv_thr=0.5
/
ATOMIC_SPECIES
 O 15.9994 O_ONCV_PBE-1.2.upf
 C 12.0107 C_ONCV_PBE-1.2.upf
 H 1.00794 H_ONCV_PBE-1.2.upf
ATOMIC_POSITIONS crystal
O      0.96835802    0.91620396    0.86995102
O      0.78087198    0.76575100    1.00759995
C      0.80851803    0.75879593    0.91469203
C      0.66094602    0.57164701    0.84461203
H      0.46884295    0.64289694    0.78314600
H      0.85843211    0.49607996    0.80654004
H      0.54604493    0.44280295    0.88803504
H      1.06541808    1.04177106    0.92326702
O      0.03164201    0.41620394    0.63004900
O      0.21912701    0.26575099    0.49239999
C      0.19148200    0.25879592    0.58530798
C      0.33905400    0.07164700    0.65538798
H      0.53115708    0.14289693    0.71685402
H      0.14156792   -0.00391903    0.69345998
H      0.45395491   -0.05719707    0.61196598
H     -0.06541805    0.54177105    0.57673299
O      0.03164200    0.08379607    0.13004897
O      0.21912704    0.23424903   -0.00759997
C      0.19148203    0.24120393    0.08530803
C      0.33905398    0.42835302    0.15538703
H      0.53115707    0.35710292    0.21685399
H      0.14156795    0.50392007    0.19346003
H      0.45395513    0.55719708    0.11196503
H     -0.06541806   -0.04177103    0.07673296
O      0.96835801    0.58379592    0.36995099
O      0.78087201    0.73424904    0.50760000
C      0.80851802    0.74120394    0.41469200
C      0.66094607    0.92835303    0.34461301
H      0.46884294    0.85710293    0.28314597
H      0.85843210    1.00392008    0.30654000
H      0.54604492    1.05719710    0.38803501
H      1.06541807    0.45822898    0.42326699
K_POINTS automatic
 5 4 2 0 0 0
CELL_PARAMETERS bohr
  7.58877700   0.00000000   0.00000000 
  0.00000000  11.12223600   0.00000000 
 -4.19668100   0.00000000  24.48449200 