&CONTROL
 calculation='scf'
 disk_io='low'
 dt=41.3414
 etot_conv_thr=1e-05
 forc_conv_thr=0.001
 input_xml_schema_file='r2scand3tight_Cc_GT_ACETAC_1_25_6_scf_0.xml'
 iprint=100000
 max_seconds=10000000
 nstep=50
 outdir='./'
 prefix='r2scand3tight_Cc_GT_ACETAC_1_25_6_scf_0'
 pseudo_dir='./'
 restart_mode='from_scratch'
 title='r2scand3tight_Cc_GT_ACETAC_1_25_6_scf_0'
 tprnfor=.false.
 tstress=.false.
 verbosity='low'
 wf_collect=.false.
/
&SYSTEM
 degauss=0.01
 dftd3_threebody=.true.
 dftd3_version=4
 ecutrho=320.0
 ecutwfc=80.0
 force_symmorphic=.false.
 ibrav=0
 input_dft='R2SCAN'
 lspinorb=.false.
 nat=16
 nbnd=34
 no_t_rev=.false.
 noinv=.false.
 noncolin=.false.
 nosym=.true.
 nosym_evc=.false.
 nspin=1
 ntyp=3
 occupations='smearing'
 smearing='gaussian'
 starting_magnetization(1)=0.0
 starting_magnetization(2)=0.0
 starting_magnetization(3)=0.0
 tot_charge=0.0
 tot_magnetization=-10000.0
 use_all_frac=.false.
 vdw_corr='DFT-D3'
/
&ELECTRONS
 conv_thr=1e-06
 diago_cg_maxiter=20
 diago_full_acc=.false.
 diago_thr_init=0.0
 diagonalization='davidson'
 electron_maxstep=200
 mixing_beta=0.2
 mixing_mode='plain'
 mixing_ndim=8
 tbeta_smoothing=.false.
 tq_smoothing=.false.
 tqr=.false.
/
&IONS
 delta_t=1.0
 ion_dynamics='bfgs'
 ion_temperature='rescale-v'
 nraise=1
 pot_extrapolation='atomic'
 refold_pos=.false.
 tempw=300.0
 tolp=100.0
 wfc_extrapolation='none'
/
&CELL
 cell_dynamics='bfgs'
 cell_factor=2.0
 press=0.0
 press_conv_thr=0.5
/
ATOMIC_SPECIES
 O 15.9994 O_ONCV_PBE-1.2.upf
 C 12.0107 C_ONCV_PBE-1.2.upf
 H 1.00794 H_ONCV_PBE-1.2.upf
ATOMIC_POSITIONS crystal
O      0.57107291    0.63890895    0.73135006
O      0.41950606    0.46813895    0.48646599
C      0.41974605    0.47040300    0.66012300
C      0.24994692    0.28903697    0.80751507
H      0.03623108    0.37802007    0.92027402
H      0.14493704    0.14737497    0.73828202
H      0.43936687    0.21388402    0.88111605
H      0.69238508    0.75946104    0.62531303
O      0.30242185    1.13890900    0.26865005
O     -0.09402824    0.96813900    0.51353398
C      0.07986700    0.97040304    0.33987697
C      0.05746188    0.78903702    0.19248505
H     -0.04349519    0.87801994    0.07972596
H     -0.11678022    0.64737502    0.26171796
H      0.32048111    0.71388407    0.11888494
H      0.31769782    1.25946091    0.37468695
K_POINTS automatic
 6 4 3 0 0 0
CELL_PARAMETERS bohr
  7.50637400   0.00000000   0.00000000 
  0.45098400  10.58358400   0.00000000 
  3.75318700   0.00000000  12.98255300 