&CONTROL
 calculation='scf'
 disk_io='low'
 dt=41.3414
 etot_conv_thr=1e-05
 forc_conv_thr=0.001
 input_xml_schema_file='r2scand3tight_Pbcn_GIG_ACETAC_3_9_7_scf_0.xml'
 iprint=100000
 max_seconds=10000000
 nstep=50
 outdir='./'
 prefix='r2scand3tight_Pbcn_GIG_ACETAC_3_9_7_scf_0'
 pseudo_dir='./'
 restart_mode='from_scratch'
 title='r2scand3tight_Pbcn_GIG_ACETAC_3_9_7_scf_0'
 tprnfor=.false.
 tstress=.false.
 verbosity='low'
 wf_collect=.false.
/
&SYSTEM
 degauss=0.01
 dftd3_threebody=.true.
 dftd3_version=4
 ecutrho=320.0
 ecutwfc=80.0
 force_symmorphic=.false.
 ibrav=0
 input_dft='R2SCAN'
 lspinorb=.false.
 nat=64
 nbnd=106
 no_t_rev=.false.
 noinv=.false.
 noncolin=.false.
 nosym=.true.
 nosym_evc=.false.
 nspin=1
 ntyp=3
 occupations='smearing'
 smearing='gaussian'
 starting_magnetization(1)=0.0
 starting_magnetization(2)=0.0
 starting_magnetization(3)=0.0
 tot_charge=0.0
 tot_magnetization=-10000.0
 use_all_frac=.false.
 vdw_corr='DFT-D3'
/
&ELECTRONS
 conv_thr=1e-06
 diago_cg_maxiter=20
 diago_full_acc=.false.
 diago_thr_init=0.0
 diagonalization='davidson'
 electron_maxstep=200
 mixing_beta=0.2
 mixing_mode='plain'
 mixing_ndim=8
 tbeta_smoothing=.false.
 tq_smoothing=.false.
 tqr=.false.
/
&IONS
 delta_t=1.0
 ion_dynamics='bfgs'
 ion_temperature='rescale-v'
 nraise=1
 pot_extrapolation='atomic'
 refold_pos=.false.
 tempw=300.0
 tolp=100.0
 wfc_extrapolation='none'
/
&CELL
 cell_dynamics='bfgs'
 cell_factor=2.0
 press=0.0
 press_conv_thr=0.5
/
ATOMIC_SPECIES
 O 15.9994 O_ONCV_PBE-1.2.upf
 C 12.0107 C_ONCV_PBE-1.2.upf
 H 1.00794 H_ONCV_PBE-1.2.upf
ATOMIC_POSITIONS crystal
O      0.50607493    0.08353078    0.84575533
O      0.51057348    0.16171727    1.05014053
C      0.51200237    0.18402770    0.93240799
C      0.52017491    0.32873187    0.87833215
H      0.66370241    0.34040109    0.81537135
H      0.37389310    0.34814011    0.81917876
H      0.52854049    0.40521049    0.95647990
H      0.49929886   -0.01351558    0.89104668
O      0.00607480    0.41646932    0.65424470
O      0.01057384    0.33828274    0.44985932
C      0.01200224    0.31597220    0.56759214
C      0.02017511    0.17126814    0.62166788
H      0.16370244    0.15959892    0.68462868
H     -0.12610686    0.15185978    0.68082108
H      0.02854069    0.09478951    0.54352004
H     -0.00070110    0.51351558    0.60895336
O      0.99392513    0.91646933    0.84575533
O      0.98942625    0.83828274    1.05014053
C      0.98799785    0.81597220    0.93240809
C      0.97982498    0.67126814    0.87833215
H      0.83629748    0.65959892    0.81537135
H      1.12610679    0.65185989    0.81917876
H      0.97145957    0.59478952    0.95647990
H      1.00070103    1.01351559    0.89104668
O      0.49392516    0.58353068    0.65424461
O      0.48942645    0.66171727    0.44985932
C      0.48799772    0.68402771    0.56759214
C      0.47982502    0.82873187    0.62166788
H      0.33629752    0.84040109    0.68462868
H      0.62610699    0.84814022    0.68082117
H      0.47145944    0.90521049    0.54352004
H      0.50070107    0.48648442    0.60895336
O      0.49392516    0.91646922    0.15424466
O      0.48942645    0.83828274   -0.05014054
C      0.48799772    0.81597220    0.06759190
C      0.47982502    0.67126814    0.12166784
H      0.33629768    0.65959892    0.18462873
H      0.62610683    0.65185989    0.18082123
H      0.47145944    0.59478952    0.04352009
H      0.50070107    1.01351559    0.10895341
O      0.99392513    0.58353068    0.34575538
O      0.98942625    0.66171727    0.55014058
C      0.98799785    0.68402771    0.43240795
C      0.97982498    0.82873187    0.37833211
H      0.83629748    0.84040109    0.31537131
H      1.12610695    0.84814022    0.31917882
H      0.97145957    0.90521049    0.45647995
H      1.00070103    0.48648442    0.39104663
O      0.00607480    0.08353078    0.15424466
O      0.01057368    0.16171727   -0.05014054
C      0.01200208    0.18402770    0.06759190
C      0.02017494    0.32873187    0.12166784
H      0.16370244    0.34040109    0.18462873
H     -0.12610686    0.34814011    0.18082113
H      0.02854069    0.40521049    0.04352009
H     -0.00070110   -0.01351558    0.10895341
O      0.50607493    0.41646932    0.34575538
O      0.51057348    0.33828274    0.55014058
C      0.51200237    0.31597230    0.43240795
C      0.52017507    0.17126814    0.37833211
H      0.66370241    0.15959892    0.31537131
H      0.37389310    0.15185978    0.31917882
H      0.52854049    0.09478951    0.45647995
H      0.49929886    0.51351558    0.39104663
K_POINTS automatic
 4 3 2 0 0 0
CELL_PARAMETERS bohr
 11.54155228   0.00000000   0.00000000 
  0.00000000  18.06453059   0.00000000 
  0.00000000   0.00000000  19.69579355 