&CONTROL
 calculation='scf'
 disk_io='low'
 dt=41.3414
 etot_conv_thr=1e-05
 forc_conv_thr=0.001
 input_xml_schema_file='r2scand3light_Pbcn_GIG_ACETAC_3_9_7_scf_0.xml'
 iprint=100000
 max_seconds=10000000
 nstep=50
 outdir='./'
 prefix='r2scand3light_Pbcn_GIG_ACETAC_3_9_7_scf_0'
 pseudo_dir='./'
 restart_mode='from_scratch'
 title='r2scand3light_Pbcn_GIG_ACETAC_3_9_7_scf_0'
 tprnfor=.false.
 tstress=.false.
 verbosity='low'
 wf_collect=.false.
/
&SYSTEM
 degauss=0.01
 dftd3_threebody=.true.
 dftd3_version=4
 ecutrho=320.0
 ecutwfc=80.0
 force_symmorphic=.false.
 ibrav=0
 input_dft='R2SCAN'
 lspinorb=.false.
 nat=64
 nbnd=106
 no_t_rev=.false.
 noinv=.false.
 noncolin=.false.
 nosym=.true.
 nosym_evc=.false.
 nspin=1
 ntyp=3
 occupations='smearing'
 smearing='gaussian'
 starting_magnetization(1)=0.0
 starting_magnetization(2)=0.0
 starting_magnetization(3)=0.0
 tot_charge=0.0
 tot_magnetization=-10000.0
 use_all_frac=.false.
 vdw_corr='DFT-D3'
/
&ELECTRONS
 conv_thr=1e-06
 diago_cg_maxiter=20
 diago_full_acc=.false.
 diago_thr_init=0.0
 diagonalization='davidson'
 electron_maxstep=200
 mixing_beta=0.2
 mixing_mode='plain'
 mixing_ndim=8
 tbeta_smoothing=.false.
 tq_smoothing=.false.
 tqr=.false.
/
&IONS
 delta_t=1.0
 ion_dynamics='bfgs'
 ion_temperature='rescale-v'
 nraise=1
 pot_extrapolation='atomic'
 refold_pos=.false.
 tempw=300.0
 tolp=100.0
 wfc_extrapolation='none'
/
&CELL
 cell_dynamics='bfgs'
 cell_factor=2.0
 press=0.0
 press_conv_thr=0.5
/
ATOMIC_SPECIES
 O 15.9994 O_ONCV_PBE-1.2.upf
 C 12.0107 C_ONCV_PBE-1.2.upf
 H 1.00794 H_ONCV_PBE-1.2.upf
ATOMIC_POSITIONS crystal
O      0.50608703    0.08352402    0.84575699
O      0.51056592    0.16171099    1.05014097
C      0.51200600    0.18401302    0.93239696
C      0.52016392    0.32872797    0.87833600
H      0.66362696    0.34043099    0.81538103
H      0.37397202    0.34814799    0.81915296
H      0.52854698    0.40524399    0.95649996
H      0.49928994   -0.01354094    0.89102103
O      0.00608696    0.41647602    0.65424302
O      0.01056602    0.33828895    0.44985904
C      0.01200593    0.31598703    0.56760296
C      0.02016402    0.17127198    0.62166401
H      0.16362706    0.15956895    0.68461898
H     -0.12602805    0.15185195    0.68084696
H      0.02854708    0.09475596    0.54349995
H     -0.00070997    0.51354099    0.60897898
O      0.99391301    0.91647597    0.84575699
O      0.98943396    0.83828900    1.05014097
C      0.98799404    0.81598698    0.93239696
C      0.97983596    0.67127202    0.87833600
H      0.83637292    0.65956900    0.81538103
H      1.12602802    0.65185200    0.81915296
H      0.97145306    0.59475601    0.95649996
H      1.00070994    1.01354104    0.89102103
O      0.49391294    0.58352397    0.65424302
O      0.48943405    0.66171104    0.44985904
C      0.48799398    0.68401296    0.56760296
C      0.47983605    0.82872802    0.62166401
H      0.33637301    0.84043104    0.68461898
H      0.62602795    0.84814804    0.68084696
H      0.47145299    0.90524403    0.54349995
H      0.50071004    0.48645900    0.60897898
O      0.49391294    0.91647597    0.15424298
O      0.48943405    0.83828900   -0.05014100
C      0.48799398    0.81598698    0.06760302
C      0.47983605    0.67127202    0.12166398
H      0.33637301    0.65956900    0.18461904
H      0.62602795    0.65185200    0.18084701
H      0.47145299    0.59475601    0.04350001
H      0.50071004    1.01354104    0.10897904
O      0.99391301    0.58352397    0.34575696
O      0.98943396    0.66171104    0.55014103
C      0.98799404    0.68401296    0.43239702
C      0.97983596    0.82872802    0.37833596
H      0.83637292    0.84043104    0.31538099
H      1.12602802    0.84814804    0.31915302
H      0.97145306    0.90524403    0.45650002
H      1.00070994    0.48645900    0.39102100
O      0.00608696    0.08352402    0.15424298
O      0.01056602    0.16171099   -0.05014100
C      0.01200593    0.18401302    0.06760302
C      0.02016402    0.32872797    0.12166398
H      0.16362706    0.34043099    0.18461904
H     -0.12602805    0.34814799    0.18084701
H      0.02854708    0.40524399    0.04350001
H     -0.00070997   -0.01354094    0.10897904
O      0.50608703    0.41647602    0.34575696
O      0.51056592    0.33828895    0.55014103
C      0.51200600    0.31598703    0.43239702
C      0.52016392    0.17127198    0.37833596
H      0.66362696    0.15956895    0.31538099
H      0.37397202    0.15185195    0.31915302
H      0.52854698    0.09475596    0.45650002
H      0.49928994    0.51354099    0.39102100
K_POINTS automatic
 4 3 2 0 0 0
CELL_PARAMETERS bohr
 11.54115300   0.00000000   0.00000000 
  0.00000000  18.06321000   0.00000000 
  0.00000000   0.00000000  19.69719600 