&CONTROL
 calculation='vc-relax'
 disk_io='low'
 dt=41.3414
 etot_conv_thr=0.001
 forc_conv_thr=0.01
 input_xml_schema_file='pbed3light_Pna21_SG_ACETAC_1_18_1_vc-relax_0.xml'
 iprint=100000
 max_seconds=10000000
 nstep=500
 outdir='./'
 prefix='pbed3light_Pna21_SG_ACETAC_1_18_1_vc-relax_0'
 pseudo_dir='./'
 restart_mode='from_scratch'
 title='pbed3light_Pna21_SG_ACETAC_1_18_1_vc-relax_0'
 tprnfor=.false.
 tstress=.false.
 verbosity='low'
 wf_collect=.false.
/
&SYSTEM
 degauss=0.01
 dftd3_threebody=.true.
 dftd3_version=4
 ecutrho=400.0
 ecutwfc=50.0
 force_symmorphic=.false.
 ibrav=0
 input_dft='PBE'
 lspinorb=.false.
 nat=32
 nbnd=58
 no_t_rev=.false.
 noinv=.false.
 noncolin=.false.
 nosym=.true.
 nosym_evc=.false.
 nspin=1
 ntyp=3
 occupations='smearing'
 smearing='gaussian'
 starting_magnetization(1)=0.0
 starting_magnetization(2)=0.0
 starting_magnetization(3)=0.0
 tot_charge=0.0
 tot_magnetization=-10000.0
 use_all_frac=.false.
 vdw_corr='DFT-D3'
/
&ELECTRONS
 conv_thr=1e-06
 diago_cg_maxiter=20
 diago_full_acc=.false.
 diago_thr_init=0.0
 diagonalization='davidson'
 electron_maxstep=200
 mixing_beta=0.2
 mixing_mode='plain'
 mixing_ndim=8
 tbeta_smoothing=.false.
 tq_smoothing=.false.
 tqr=.false.
/
&IONS
 delta_t=1.0
 ion_dynamics='bfgs'
 ion_temperature='rescale-v'
 nraise=1
 pot_extrapolation='atomic'
 refold_pos=.false.
 tempw=300.0
 tolp=100.0
 wfc_extrapolation='none'
/
&CELL
 cell_dynamics='bfgs'
 cell_factor=2.0
 press=0.0
 press_conv_thr=5.0
/
ATOMIC_SPECIES
 O 15.9994 o_pbe_v1.2.uspp.F.UPF
 C 12.0107 c_pbe_v1.2.uspp.F.UPF
 H 1.00794 h_pbe_v1.4.uspp.F.UPF
ATOMIC_POSITIONS crystal
O      0.09879511    0.25265601    0.62801403
O      0.36893590    0.42693506    0.75701597
C      0.28423803    0.42302707    0.66584101
C      0.38110999    0.60418793    0.58922801
H      0.54612588    0.52471106    0.53153899
H      0.15798404    0.66760006    0.54859204
H      0.51325911    0.74859703    0.62654202
H      0.02816193    0.13332797    0.68363399
O      0.90120490    0.75265592    0.37198597
O      0.63106412    0.92693496    0.24298403
C      0.71576199    0.92302697    0.33415899
C      0.61889002    1.10418801    0.41077199
H      0.45387388    1.02470992    0.46846101
H      0.84201597    1.16759996    0.45140804
H      0.48674090    1.24859693    0.37345798
H      0.97183808    0.63332805    0.31636601
O      0.40120502    0.25265601    0.12801399
O      0.13106398    0.42693506    0.25701601
C      0.21576210    0.42302707    0.16584097
C      0.11888989    0.60418793    0.08922797
H     -0.04612600    0.52471106    0.03153903
H      0.34201609    0.66760006    0.04859200
H     -0.01325898    0.74859703    0.12654198
H      0.47183795    0.13332797    0.18363403
O      0.59879499    0.75265592    0.87198601
O      0.86893603    0.92693496    0.74298399
C      0.78423791    0.92302697    0.83415903
C      0.88110988    1.10418801    0.91077203
H      1.04612602    1.02470992    0.96846097
H      0.65798393    1.16759996    0.95140800
H      1.01325799    1.24859693    0.87345802
H      0.52816207    0.63332805    0.81636597
K_POINTS automatic
 6 4 2 0 0 0
CELL_PARAMETERS bohr
  7.54751500   0.00000000   0.00000000 
  0.00000000  10.82048700   0.00000000 
  0.00000000   0.00000000  24.77037700 