&CONTROL
 calculation='scf'
 disk_io='low'
 dt=41.3414
 etot_conv_thr=1e-05
 forc_conv_thr=0.001
 input_xml_schema_file='r2scand3tight_P21c_TSI_ACETAC_3_1750_1_scf_0.xml'
 iprint=100000
 max_seconds=10000000
 nstep=50
 outdir='./'
 prefix='r2scand3tight_P21c_TSI_ACETAC_3_1750_1_scf_0'
 pseudo_dir='./'
 restart_mode='from_scratch'
 title='r2scand3tight_P21c_TSI_ACETAC_3_1750_1_scf_0'
 tprnfor=.false.
 tstress=.false.
 verbosity='low'
 wf_collect=.false.
/
&SYSTEM
 degauss=0.01
 dftd3_threebody=.true.
 dftd3_version=4
 ecutrho=320.0
 ecutwfc=80.0
 force_symmorphic=.false.
 ibrav=0
 input_dft='R2SCAN'
 lspinorb=.false.
 nat=32
 nbnd=58
 no_t_rev=.false.
 noinv=.false.
 noncolin=.false.
 nosym=.true.
 nosym_evc=.false.
 nspin=1
 ntyp=3
 occupations='smearing'
 smearing='gaussian'
 starting_magnetization(1)=0.0
 starting_magnetization(2)=0.0
 starting_magnetization(3)=0.0
 tot_charge=0.0
 tot_magnetization=-10000.0
 use_all_frac=.false.
 vdw_corr='DFT-D3'
/
&ELECTRONS
 conv_thr=1e-06
 diago_cg_maxiter=20
 diago_full_acc=.false.
 diago_thr_init=0.0
 diagonalization='davidson'
 electron_maxstep=200
 mixing_beta=0.2
 mixing_mode='plain'
 mixing_ndim=8
 tbeta_smoothing=.false.
 tq_smoothing=.false.
 tqr=.false.
/
&IONS
 delta_t=1.0
 ion_dynamics='bfgs'
 ion_temperature='rescale-v'
 nraise=1
 pot_extrapolation='atomic'
 refold_pos=.false.
 tempw=300.0
 tolp=100.0
 wfc_extrapolation='none'
/
&CELL
 cell_dynamics='bfgs'
 cell_factor=2.0
 press=0.0
 press_conv_thr=0.5
/
ATOMIC_SPECIES
 O 15.9994 O_ONCV_PBE-1.2.upf
 C 12.0107 C_ONCV_PBE-1.2.upf
 H 1.00794 H_ONCV_PBE-1.2.upf
ATOMIC_POSITIONS crystal
O      0.11611794    0.57055092    0.62834701
O      0.38383290    0.39228398    0.75669196
C      0.29660612    0.39930200    0.66549903
C      0.38402907    0.22038801    0.58790001
H      0.14673603    0.15612501    0.55020404
H      0.54842394    0.30022008    0.52811902
H      0.51754695    0.07752506    0.62423598
H      0.04797605    0.68691192    0.68445097
O      0.38388197   -0.07055102    0.12834702
O      0.11616701    0.10771592    0.25669197
C      0.20339405    0.10069808    0.16549903
C      0.11597110    0.27961207    0.08790002
H      0.35326388    0.34387506    0.05020397
H     -0.04842403    0.19977999    0.02811903
H     -0.01754703    0.42247502    0.12423599
H      0.45202386   -0.18691202    0.18445098
O      0.88388189    0.42944905    0.37165298
O      0.61616692    0.60771599    0.24330803
C      0.70339396    0.60069798    0.33450104
C      0.61597101    0.77961197    0.41209998
H      0.85326405    0.84387496    0.44979603
H      0.45157589    0.69978007    0.47188097
H      0.48245288    0.92247492    0.37576401
H      0.95202404    0.31308806    0.31554902
O      0.61611811    1.07055100    0.87165297
O      0.88383308    0.89228406    0.74330802
C      0.79660604    0.89930207    0.83450103
C      0.88402899    0.72038808    0.91209997
H      0.64673595    0.65612508    0.94979602
H      1.04842411    0.80021998    0.97188104
H      1.01754712    0.57752496    0.87576400
H      0.54797596    1.18691199    0.81554901
K_POINTS automatic
 6 4 2 0 0 0
CELL_PARAMETERS bohr
  7.33224500   0.00000000   0.00000000 
 -0.32504100  10.91396800   0.00000000 
  0.00000000   0.00000000  24.73173800 