&CONTROL
title='pbed3light_P21c_TSI_ACETAC_3_1750_0_vc-relax_0'
calculation='vc-relax'
restart_mode='from_scratch'
prefix='pbed3light_P21c_TSI_ACETAC_3_1750_0_vc-relax_0'
pseudo_dir='./'
outdir='./'
tstress=.false.
tprnfor=.false.
disk_io='low'
max_seconds=10000000.0
nstep=500
etot_conv_thr=1.000000e-03
forc_conv_thr=1.000000e-02
iprint=100000
dt=41.3414
/
&SYSTEM
input_dft='PBE'
vdw_corr='DFT-D3'
dftd3_version=4
dftd3_threebody=.true.
nspin=1
nbnd=58
tot_charge=0.0
tot_magnetization=-10000.0
occupations='smearing'
smearing='gaussian'
degauss=0.01
ecutwfc=50.0
ecutrho=400.0
nosym=.true.
noinv=.false.
use_all_frac=.false.
ibrav=0
ntyp=3
nat=32
starting_magnetization(1)=0.0
starting_magnetization(2)=0.0
starting_magnetization(3)=0.0
/
&ELECTRONS
diagonalization='davidson'
mixing_mode='plain'
mixing_beta=0.2
conv_thr=1e-06
mixing_ndim=8
electron_maxstep=200
real_space=.false.
diago_thr_init=0.0
diago_full_acc=.false.
diago_cg_maxiter=20
/
&IONS
ion_dynamics='bfgs'
refold_pos=.false.
pot_extrapolation='atomic'
wfc_extrapolation='none'
ion_temperature='rescale-v'
tempw=3.00000e+02
delta_t=1.000000e+00
nraise=1
/
&CELL
cell_dynamics='bfgs'
press=0.0
cell_factor=2.0
cell_dofree='all'
/
ATOMIC_SPECIES
O 15.9994 o_pbe_v1.2.uspp.F.UPF
C 12.0107 c_pbe_v1.2.uspp.F.UPF
H 1.00794 h_pbe_v1.4.uspp.F.UPF
ATOMIC_POSITIONS crystal
O  0.11611794   0.57055092   0.62834701
O  0.38383290   0.39228398   0.75669196
C  0.29660612   0.39930200   0.66549903
C  0.38402907   0.22038801   0.58790001
H  0.14673603   0.15612501   0.55020404
H  0.54842394   0.30022008   0.52811902
H  0.51754695   0.07752506   0.62423598
H  0.04797605   0.68691192   0.68445097
O  0.38388197  -0.07055102   0.12834702
O  0.11616701   0.10771592   0.25669197
C  0.20339405   0.10069808   0.16549903
C  0.11597110   0.27961207   0.08790002
H  0.35326388   0.34387506   0.05020397
H -0.04842403   0.19977999   0.02811903
H -0.01754703   0.42247502   0.12423599
H  0.45202386  -0.18691202   0.18445098
O  0.88388189   0.42944905   0.37165298
O  0.61616692   0.60771599   0.24330803
C  0.70339396   0.60069798   0.33450104
C  0.61597101   0.77961197   0.41209998
H  0.85326405   0.84387496   0.44979603
H  0.45157589   0.69978007   0.47188097
H  0.48245288   0.92247492   0.37576401
H  0.95202404   0.31308806   0.31554902
O  0.61611811   1.07055100   0.87165297
O  0.88383308   0.89228406   0.74330802
C  0.79660604   0.89930207   0.83450103
C  0.88402899   0.72038808   0.91209997
H  0.64673595   0.65612508   0.94979602
H  1.04842411   0.80021998   0.97188104
H  1.01754712   0.57752496   0.87576400
H  0.54797596   1.18691199   0.81554901
CELL_PARAMETERS bohr
  7.33224500   0.00000000   0.00000000
 -0.32504100  10.91396800   0.00000000
  0.00000000   0.00000000  24.73173800
K_POINTS automatic
6 4 2 0 0 0
