&CONTROL
title='pbed3light_Cc_GT_ACETAC_1_25_2_vc-relax_0'
calculation='vc-relax'
restart_mode='from_scratch'
prefix='pbed3light_Cc_GT_ACETAC_1_25_2_vc-relax_0'
pseudo_dir='./'
outdir='./'
tstress=.false.
tprnfor=.false.
disk_io='low'
max_seconds=10000000.0
nstep=500
etot_conv_thr=1.000000e-03
forc_conv_thr=1.000000e-02
iprint=100000
dt=41.3414
/
&SYSTEM
input_dft='PBE'
vdw_corr='DFT-D3'
dftd3_version=4
dftd3_threebody=.true.
nspin=1
nbnd=34
tot_charge=0.0
tot_magnetization=-10000.0
occupations='smearing'
smearing='gaussian'
degauss=0.01
ecutwfc=50.0
ecutrho=400.0
nosym=.true.
noinv=.false.
use_all_frac=.false.
ibrav=0
ntyp=3
nat=16
starting_magnetization(1)=0.0
starting_magnetization(2)=0.0
starting_magnetization(3)=0.0
/
&ELECTRONS
diagonalization='davidson'
mixing_mode='plain'
mixing_beta=0.2
conv_thr=1e-06
mixing_ndim=8
electron_maxstep=200
real_space=.false.
diago_thr_init=0.0
diago_full_acc=.false.
diago_cg_maxiter=20
/
&IONS
ion_dynamics='bfgs'
refold_pos=.false.
pot_extrapolation='atomic'
wfc_extrapolation='none'
ion_temperature='rescale-v'
tempw=3.00000e+02
delta_t=1.000000e+00
nraise=1
/
&CELL
cell_dynamics='bfgs'
press=0.0
cell_factor=2.0
cell_dofree='all'
/
ATOMIC_SPECIES
O 15.9994 o_pbe_v1.2.uspp.F.UPF
C 12.0107 c_pbe_v1.2.uspp.F.UPF
H 1.00794 h_pbe_v1.4.uspp.F.UPF
ATOMIC_POSITIONS crystal
O  0.57107291   0.63890895   0.73135006
O  0.41950606   0.46813895   0.48646599
C  0.41974605   0.47040300   0.66012300
C  0.24994692   0.28903697   0.80751507
H  0.03623108   0.37802007   0.92027402
H  0.14493704   0.14737497   0.73828202
H  0.43936687   0.21388402   0.88111605
H  0.69238508   0.75946104   0.62531303
O  0.30242185   1.13890900   0.26865005
O -0.09402824   0.96813900   0.51353398
C  0.07986700   0.97040304   0.33987697
C  0.05746188   0.78903702   0.19248505
H -0.04349519   0.87801994   0.07972596
H -0.11678022   0.64737502   0.26171796
H  0.32048111   0.71388407   0.11888494
H  0.31769782   1.25946091   0.37468695
CELL_PARAMETERS bohr
  7.50637400   0.00000000   0.00000000
  0.45098400  10.58358400   0.00000000
  3.75318700  -0.00000000  12.98255300
K_POINTS automatic
6 4 3 0 0 0
